p cnf 130 403
c t mc
-1 -2 -3 0
1 2 -3 0
-1 2 3 0
1 -2 3 0
-7 5 0
-7 -6 0
-5 6 7 0
-4 7 -8 0
4 -7 -8 0
-4 -7 8 0
4 7 8 0
-11 -9 0
-11 -10 0
9 10 11 0
13 -11 0
13 12 0
11 -12 -13 0
16 -14 0
16 15 0
14 -15 -16 0
-13 -16 -17 0
13 16 -17 0
-13 16 17 0
13 -16 17 0
8 17 -18 0
-8 -17 -18 0
8 -17 18 0
-8 17 18 0
-3 -18 -19 0
3 18 -19 0
-3 18 19 0
3 -18 19 0
23 -6 0
23 -22 0
6 22 -23 0
25 9 0
25 -24 0
-9 24 -25 0
-26 23 0
-26 25 0
-23 -25 26 0
-26 -27 -28 0
26 27 -28 0
-26 27 28 0
26 -27 28 0
29 21 0
29 28 0
-21 -28 -29 0
-30 -29 0
-30 -26 0
29 26 30 0
31 -20 0
31 -30 0
20 30 -31 0
-32 31 0
-32 -24 0
-31 24 32 0
-19 32 -33 0
19 -32 -33 0
-19 -32 33 0
19 32 33 0
22 -26 -34 0
-22 26 -34 0
22 26 34 0
-22 -26 34 0
37 -35 0
37 36 0
35 -36 -37 0
34 -37 -38 0
-34 37 -38 0
34 37 38 0
-34 -37 38 0
39 20 0
39 24 0
-20 -24 -39 0
-42 -40 0
-42 -41 0
40 41 42 0
-42 25 -43 0
42 -25 -43 0
-42 -25 43 0
42 25 43 0
-44 -39 0
-44 43 0
39 -43 44 0
-38 44 -45 0
38 -44 -45 0
-38 -44 45 0
38 44 45 0
-47 -21 0
-47 46 0
21 -46 47 0
48 47 0
48 22 0
-47 -22 -48 0
48 49 -50 0
-48 -49 -50 0
48 -49 50 0
-48 49 50 0
51 -21 0
51 50 0
21 -50 -51 0
50 52 -53 0
-50 -52 -53 0
50 -52 53 0
-50 52 53 0
51 53 -54 0
-51 -53 -54 0
51 -53 54 0
-51 53 54 0
55 2 0
55 -25 0
-2 25 -55 0
-57 -16 0
-57 28 0
16 -28 57 0
-25 57 -58 0
25 -57 -58 0
-25 -57 58 0
25 57 58 0
-59 56 0
-59 -58 0
-56 58 59 0
60 55 0
60 59 0
-55 -59 -60 0
-61 41 0
-61 9 0
-41 -9 61 0
60 -61 -62 0
-60 61 -62 0
60 61 62 0
-60 -61 62 0
65 7 0
65 24 0
-7 -24 -65 0
64 65 -66 0
-64 -65 -66 0
64 -65 66 0
-64 65 66 0
63 -66 -67 0
-63 66 -67 0
63 66 67 0
-63 -66 67 0
-68 -62 0
-68 -67 0
62 67 68 0
-65 26 -69 0
65 -26 -69 0
-65 -26 69 0
65 26 69 0
30 69 -70 0
-30 -69 -70 0
30 -69 70 0
-30 69 70 0
-71 30 0
-71 -50 0
-30 50 71 0
72 71 0
72 -30 0
-71 30 -72 0
70 72 -73 0
-70 -72 -73 0
70 -72 73 0
-70 72 73 0
-74 68 0
-74 73 0
-68 -73 74 0
-75 -15 0
-75 -15 0
15 75 0
76 -52 0
76 71 0
52 -71 -76 0
77 75 0
77 -76 0
-75 76 -77 0
-79 -78 0
-79 28 0
78 -28 79 0
-81 -80 0
-81 40 0
80 -40 81 0
-9 6 -82 0
9 -6 -82 0
-9 -6 82 0
9 6 82 0
-83 -81 0
-83 82 0
81 -82 83 0
84 -79 0
84 -83 0
79 83 -84 0
-12 -14 -85 0
12 14 -85 0
-12 14 85 0
12 -14 85 0
87 86 0
87 -21 0
-86 21 -87 0
87 -52 -88 0
-87 52 -88 0
87 52 88 0
-87 -52 88 0
89 85 0
89 -88 0
-85 88 -89 0
-90 84 0
-90 -89 0
-84 89 90 0
91 -77 0
91 -90 0
77 90 -91 0
-74 91 -92 0
74 -91 -92 0
-74 -91 92 0
74 91 92 0
-93 54 0
-93 92 0
-54 -92 93 0
-94 86 0
-94 -25 0
-86 25 94 0
-56 94 -95 0
56 -94 -95 0
-56 -94 95 0
56 94 95 0
14 -50 -96 0
-14 50 -96 0
14 50 96 0
-14 -50 96 0
97 12 0
97 -15 0
-12 15 -97 0
98 -26 0
98 -97 0
26 97 -98 0
99 -96 0
99 -98 0
96 98 -99 0
-99 -71 -100 0
99 71 -100 0
-99 71 100 0
99 -71 100 0
-95 -100 -101 0
95 100 -101 0
-95 100 101 0
95 -100 101 0
-102 5 -103 0
102 -5 -103 0
-102 -5 103 0
102 5 103 0
101 103 -104 0
-101 -103 -104 0
101 -103 104 0
-101 103 104 0
-106 105 0
-106 99 0
-105 -99 106 0
21 -107 -108 0
-21 107 -108 0
21 107 108 0
-21 -107 108 0
-106 108 -109 0
106 -108 -109 0
-106 -108 109 0
106 108 109 0
110 104 0
110 109 0
-104 -109 -110 0
93 -110 -111 0
-93 110 -111 0
93 110 111 0
-93 -110 111 0
112 -45 0
112 -111 0
45 111 -112 0
113 33 0
113 -112 0
-33 112 -113 0
114 5 0
114 -107 0
-5 107 -114 0
115 -14 0
115 -65 0
14 65 -115 0
-24 35 -116 0
24 -35 -116 0
-24 -35 116 0
24 35 116 0
-117 -116 0
-117 41 0
116 -41 117 0
118 115 0
118 117 0
-115 -117 -118 0
-114 118 -119 0
114 -118 -119 0
-114 -118 119 0
114 118 119 0
41 -69 -120 0
-41 69 -120 0
41 69 120 0
-41 -69 120 0
-121 -40 0
-121 -116 0
40 116 121 0
-26 -98 -122 0
26 98 -122 0
-26 98 122 0
26 -98 122 0
-123 122 0
-123 -7 0
-122 7 123 0
121 -123 -124 0
-121 123 -124 0
121 123 124 0
-121 -123 124 0
-27 29 -125 0
27 -29 -125 0
-27 -29 125 0
27 29 125 0
-126 125 0
-126 10 0
-125 -10 126 0
127 124 0
127 126 0
-124 -126 -127 0
-128 -120 0
-128 -127 0
120 127 128 0
129 -119 0
129 128 0
119 -128 -129 0
113 129 -130 0
-113 -129 -130 0
113 -129 130 0
-113 129 130 0
35 75 73 68 74 -12 -84 -37 71 0
-116 51 117 90 56 -86 0
-75 -103 114 -105 127 122 -2 66 111 0
94 47 106 46 -115 35 31 74 5 0
-25 -35 -41 63 -86 0
123 -87 8 125 34 68 0
54 -48 99 -69 -97 -32 53 4 -116 110 0
-105 123 -49 38 -44 0
3 -51 -105 0
-69 -22 -50 0
97 109 67 -85 106 125 75 -18 120 0
123 83 -52 0
37 -79 -9 -35 77 0
55 -58 -130 129 -110 26 18 54 0
32 125 -78 -86 -40 0
110 -116 129 0
110 -103 21 0
79 16 113 78 0
-48 -122 -43 130 -103 29 -78 -99 -36 0
-1 -21 88 -86 -102 68 100 33 71 0
2 -3 -128 15 37 68 -19 -110 106 55 0
-97 102 -98 8 -123 -22 0
72 -104 -66 -87 -97 -3 122 -44 -74 -67 0
-24 81 35 0
-37 1 -24 96 -125 0
-109 89 -63 94 0
-130 119 95 121 0
35 -84 -60 122 87 0
22 17 -45 -73 103 89 20 113 -54 94 0
62 -126 -61 -49 57 -90 65 0
-30 -129 63 28 68 121 113 -108 114 0
96 -72 95 -128 -36 -31 -107 -8 94 -63 0
20 76 89 78 0
6 -116 -119 83 -122 44 47 -84 0
-83 -56 88 -57 -124 -84 52 127 0
101 107 60 -70 121 -69 0
85 84 -95 -120 0
73 -26 -97 -130 69 -116 18 0
-14 105 -82 0
-35 -70 -32 79 46 91 -62 38 -113 0
-121 -37 -58 -67 -109 -122 129 0
67 65 -76 84 29 -12 0
-98 105 -6 -104 5 0
-87 81 40 101 0
79 -110 48 -108 -46 8 85 -60 0
-53 55 82 15 56 -9 -16 -90 0
60 -39 -20 78 -42 -88 91 0
-99 19 9 -75 76 -104 -41 83 -58 1 0
67 -70 82 19 -92 0
69 121 113 12 5 0
-10 4 -43 0
112 3 85 11 13 55 0
-102 -49 100 14 -129 0
-58 49 -87 -27 62 0
-55 -45 -9 0
-67 -120 15 89 0
-68 -71 94 0
79 61 63 -117 -82 17 75 -77 -40 0
106 102 -90 -95 -23 10 100 92 0
-109 67 -71 35 -42 121 -11 -41 7 0
8 -55 66 -124 122 78 -23 81 -10 0
6 128 68 77 27 -41 90 121 92 0
84 -83 -63 51 -11 -25 0
-72 108 -100 125 0
130 0
